experiments/21_JSA_experiments/solutions/imx8a/all/IN_2.json-ILP-IDLE-MIN.out.log
Using license file /home/benedond/gurobi.lic
Using gurobi.env file
Set parameter Threads to value 1
Academic license - for non-commercial use only
Changed value of parameter TimeLimit to 300.0
   Prev: inf  Min: 0.0  Max: inf  Default: inf
Gurobi Optimizer version 9.0.1 build v9.0.1rc0 (linux64)
Optimize a model with 880 rows, 820 columns and 3258 nonzeros
Model fingerprint: 0x2eb23252
Variable types: 20 continuous, 800 integer (800 binary)
Coefficient statistics:
  Matrix range     [1e+00, 4e+02]
  Objective range  [4e+01, 4e+02]
  Bounds range     [1e+00, 1e+00]
  RHS range        [1e+00, 1e+03]
Presolve removed 537 rows and 518 columns
Presolve time: 0.17s
Presolved: 343 rows, 302 columns, 2355 nonzeros
Variable types: 20 continuous, 282 integer (282 binary)
Found heuristic solution: objective 2263.0000000

Root relaxation: objective 1.096000e+03, 171 iterations, 0.00 seconds

    Nodes    |    Current Node    |     Objective Bounds      |     Work
 Expl Unexpl |  Obj  Depth IntInf | Incumbent    BestBd   Gap | It/Node Time

     0     0 1096.00000    0   35 2263.00000 1096.00000  51.6%     -    0s
H    0     0                    2202.0000000 1096.00000  50.2%     -    0s
     0     0 1096.00000    0   46 2202.00000 1096.00000  50.2%     -    0s
H    0     0                    2168.0000000 1096.00000  49.4%     -    0s
     0     0 1096.00000    0   43 2168.00000 1096.00000  49.4%     -    0s
     0     0 1125.14794    0   51 2168.00000 1125.14794  48.1%     -    0s
     0     0 1135.69268    0   54 2168.00000 1135.69268  47.6%     -    0s
     0     0 1139.30217    0   55 2168.00000 1139.30217  47.4%     -    0s
     0     0 1139.56255    0   55 2168.00000 1139.56255  47.4%     -    0s
     0     0 1175.17466    0   50 2168.00000 1175.17466  45.8%     -    0s
     0     0 1177.52665    0   52 2168.00000 1177.52665  45.7%     -    0s
     0     0 1177.54303    0   53 2168.00000 1177.54303  45.7%     -    0s
     0     0 1206.82595    0   56 2168.00000 1206.82595  44.3%     -    0s
     0     0 1210.01089    0   59 2168.00000 1210.01089  44.2%     -    0s
     0     0 1210.77289    0   59 2168.00000 1210.77289  44.2%     -    0s
     0     0 1210.84169    0   59 2168.00000 1210.84169  44.1%     -    0s
     0     0 1210.84449    0   60 2168.00000 1210.84449  44.1%     -    0s
     0     0 1235.74125    0   56 2168.00000 1235.74125  43.0%     -    0s
     0     0 1236.65486    0   57 2168.00000 1236.65486  43.0%     -    0s
     0     0 1237.34913    0   58 2168.00000 1237.34913  42.9%     -    0s
     0     0 1237.76482    0   57 2168.00000 1237.76482  42.9%     -    0s
     0     0 1238.36153    0   58 2168.00000 1238.36153  42.9%     -    0s
     0     0 1238.55119    0   58 2168.00000 1238.55119  42.9%     -    0s
     0     0 1238.61190    0   58 2168.00000 1238.61190  42.9%     -    0s
     0     0 1238.61474    0   58 2168.00000 1238.61474  42.9%     -    0s
     0     0 1247.71249    0   53 2168.00000 1247.71249  42.4%     -    0s
     0     0 1253.12577    0   56 2168.00000 1253.12577  42.2%     -    0s
     0     0 1253.42244    0   57 2168.00000 1253.42244  42.2%     -    0s
     0     0 1253.49407    0   58 2168.00000 1253.49407  42.2%     -    0s
     0     0 1253.64412    0   59 2168.00000 1253.64412  42.2%     -    0s
     0     0 1253.78923    0   59 2168.00000 1253.78923  42.2%     -    0s
     0     0 1257.22810    0   57 2168.00000 1257.22810  42.0%     -    0s
H    0     0                    1988.0000000 1257.22810  36.8%     -    0s
     0     0 1258.17008    0   57 1988.00000 1258.17008  36.7%     -    0s
     0     0 1259.15167    0   58 1988.00000 1259.15167  36.7%     -    0s
     0     0 1259.22749    0   60 1988.00000 1259.22749  36.7%     -    0s
     0     0 1259.22758    0   60 1988.00000 1259.22758  36.7%     -    0s
     0     0 1262.97980    0   60 1988.00000 1262.97980  36.5%     -    0s
     0     0 1264.42076    0   59 1988.00000 1264.42076  36.4%     -    0s
     0     0 1264.50799    0   59 1988.00000 1264.50799  36.4%     -    0s
     0     0 1265.60451    0   59 1988.00000 1265.60451  36.3%     -    0s
     0     0 1266.01223    0   60 1988.00000 1266.01223  36.3%     -    0s
     0     0 1266.03412    0   60 1988.00000 1266.03412  36.3%     -    0s
     0     0 1269.29931    0   56 1988.00000 1269.29931  36.2%     -    0s
     0     0 1273.33603    0   56 1988.00000 1273.33603  35.9%     -    0s
     0     0 1273.57629    0   55 1988.00000 1273.57629  35.9%     -    0s
     0     0 1273.78854    0   57 1988.00000 1273.78854  35.9%     -    0s
     0     0 1273.79458    0   57 1988.00000 1273.79458  35.9%     -    0s
     0     0 1276.05935    0   55 1988.00000 1276.05935  35.8%     -    0s
H    0     0                    1858.0000000 1276.05935  31.3%     -    0s
     0     0 1276.47806    0   56 1858.00000 1276.47806  31.3%     -    0s
     0     0 1276.77880    0   56 1858.00000 1276.77880  31.3%     -    0s
     0     0 1276.94073    0   58 1858.00000 1276.94073  31.3%     -    0s
     0     0 1276.97143    0   58 1858.00000 1276.97143  31.3%     -    0s
     0     0 1278.06679    0   57 1858.00000 1278.06679  31.2%     -    0s
     0     0 1278.47339    0   60 1858.00000 1278.47339  31.2%     -    0s
     0     0 1278.53347    0   60 1858.00000 1278.53347  31.2%     -    0s
     0     0 1278.54371    0   59 1858.00000 1278.54371  31.2%     -    0s
     0     0 1280.21749    0   57 1858.00000 1280.21749  31.1%     -    0s
     0     0 1280.89108    0   57 1858.00000 1280.89108  31.1%     -    0s
     0     0 1280.91384    0   58 1858.00000 1280.91384  31.1%     -    0s
     0     0 1281.02172    0   58 1858.00000 1281.02172  31.1%     -    0s
     0     0 1281.24441    0   59 1858.00000 1281.24441  31.0%     -    0s
     0     0 1281.25140    0   59 1858.00000 1281.25140  31.0%     -    0s
     0     0 1281.30049    0   58 1858.00000 1281.30049  31.0%     -    0s
     0     0 1281.30286    0   60 1858.00000 1281.30286  31.0%     -    0s
     0     0 1281.30535    0   61 1858.00000 1281.30535  31.0%     -    0s
     0     0 1281.30535    0   59 1858.00000 1281.30535  31.0%     -    0s
     0     2 1300.59640    0   59 1858.00000 1300.59640  30.0%     -    0s
*   53    28              38    1830.0000000 1311.69130  28.3%  12.8    0s
*  309   126               8    1798.0000000 1373.80827  23.6%  11.6    0s
*  475   188              20    1757.0000000 1409.71364  19.8%  12.2    0s
H  537   146                    1689.0000000 1436.01014  15.0%  12.5    0s

Cutting planes:
  Gomory: 5
  Cover: 69
  Implied bound: 3
  Clique: 5
  MIR: 127
  GUB cover: 12
  Zero half: 2
  RLT: 2
  Relax-and-lift: 39

Explored 1165 nodes (15709 simplex iterations) in 1.16 seconds
Thread count was 1 (of 4 available processors)

Solution count 9: 1689 1757 1798 ... 2263

Optimal solution found (tolerance 1.00e-04)
Best objective 1.689000000000e+03, best bound 1.689000000000e+03, gap 0.0000%
